experiments/knapsack_bounded/knapsack_bounded_5_6.mps
NAME
ROWS
 N  OBJ
 L  c1
 L  c2
 L  c3
 L  c4
 L  c5
 L  c6
COLUMNS
    MARKER    'MARKER'                 'INTORG'
    x[1]      c1        996
    x[1]      c2        1
    x[1]      OBJ       -711
    x[2]      c1        819
    x[2]      c3        1
    x[2]      OBJ       -566
    x[3]      c1        731
    x[3]      c4        1
    x[3]      OBJ       -121
    x[4]      c1        240
    x[4]      c5        1
    x[4]      OBJ       -991
    x[5]      c1        834
    x[5]      c6        1
    x[5]      OBJ       -636
    MARKER    'MARKER'                 'INTEND'
RHS
    rhs       c1        1810
    rhs       c2        7
    rhs       c3        1
    rhs       c4        1
    rhs       c5        7
    rhs       c6        7
RANGES
BOUNDS
 LO bounds    x[1]      0
 PL bounds    x[1]
 LO bounds    x[2]      0
 PL bounds    x[2]
 LO bounds    x[3]      0
 PL bounds    x[3]
 LO bounds    x[4]      0
 PL bounds    x[4]
 LO bounds    x[5]      0
 PL bounds    x[5]
ENDATA
